Route 1: 0 94 26 60 52 14 49 79 37 5 100 0
Route 2: 0 63 19 91 9 92 73 45 57 28 33 10 50 0
Route 3: 0 21 17 81 53 24 6 36 0
Route 4: 0 3 86 47 4 59 1 25 74 12 66 0
Route 5: 0 20 90 30 62 46 83 0
Route 6: 0 84 65 95 88 55 85 71 18 67 96 42 0
Route 7: 0 43 80 76 13 38 97 39 82 22 58 31 0
Route 8: 0 54 32 98 72 51 44 0
Route 9: 0 7 56 89 48 69 70 68 0
Route 10: 0 99 77 15 41 75 23 87 29 0
Route 11: 0 34 16 2 27 61 93 35 0
Route 12: 0 8 78 40 11 64 0
